1000
1   1   47   89   0 44 14 38 86 0
1   2   0    0    0 0
1   3   54   95   0 99 96 6 89 13 97 42 100 0
1   4   40   79   0 5 60 83 84 61 16 0
1   5   25   95   0 59 94 95 92 37 98 0
1   6   9    63   0 93 85 0
2   1   146  99   0 25 55 24 78 34 66 32 20 77 0
2   2   126  98   0 21 40 18 8 45 17 91 43 15 41 22 0
2   3   48   91   0 39 67 23 56 0
2   4   56   88   0 4 54 29 68 80 0
2   5   61   97   0 26 12 76 28 53 58 0
2   6   56   100  0 72 75 74 57 87 2 73 0
3   1   56   99   0 48 47 19 62 0
3   2   51   96   0 1 50 3 79 81 33 0
3   3   76   95   0 51 9 35 65 71 30 70 0
3   4   0    0    0 0
3   5   102  100  0 88 7 82 46 36 49 64 11 63 90 0
3   6   47   74   0 10 31 52 27 69 0